decision_x1=[0,7];
decision_x2=[0,7];
decision_x3=[0,7];
decision_x4=[0,7];
decision_x5=[0,7];
decision_x6=[0,7];
decision_x7=[0,7];
decision_x8=[0,7];
decision_x9=[0,7];
decision_x10=[0,7];
decision_x11=[0,7];
decision_x12=[0,7];
decision_x13=[0,7];
decision_x14=[0,7];
decision_x15=[0,7];
decision_x16=[0,7];
decision_x17=[0,7];
decision_x18=[0,7];
decision_x19=[0,7];
decision_x20=[0,7];
random_y1=[0,7];
random_y2=[0,7];
random_y3=[0,7];
random_y4=[0,7];
random_y5=[0,7];
random_y6=[0,7];
random_y7=[0,7];
random_y8=[0,7];
random_y9=[0,7];
constraint_x2_x1=[
0,0,5.5|
0,1,2.3|
0,2,5.7|
0,3,7.5|
0,4,3.7|
0,5,8.8|
0,6,6|
0,7,0.46|
1,0,9.2|
1,1,0.19|
1,2,2.2|
1,3,6|
1,4,0.73|
1,5,0.35|
1,6,5.6|
1,7,0.85|
2,0,2.8|
2,1,9|
2,2,2.2|
2,3,4.1|
2,4,7.9|
2,5,1.4|
2,6,6.8|
2,7,0.29|
3,0,1.6|
3,1,8.4|
3,2,0.03|
3,3,9.6|
3,4,4.6|
3,5,5.5|
3,6,1.3|
3,7,5.6|
4,0,5.6|
4,1,9.9|
4,2,0.97|
4,3,7.3|
4,4,8.3|
4,5,10|
4,6,0.037|
4,7,10|
5,0,2.8|
5,1,7.9|
5,2,2.9|
5,3,3.9|
5,4,6.2|
5,5,1.9|
5,6,1.5|
5,7,9.9|
6,0,5|
6,1,4.4|
6,2,1.1|
6,3,1.1|
6,4,0.15|
6,5,5.3|
6,6,1.5|
6,7,9.8|
7,0,6.1|
7,1,5.1|
7,2,7.9|
7,3,6.9|
7,4,3.7|
7,5,9|
7,6,6.6|
7,7,7.2|
];
constraint_x3_x2=[
0,0,9|
0,1,8.1|
0,2,7.9|
0,3,8.5|
0,4,3.7|
0,5,8.8|
0,6,8.5|
0,7,0.43|
1,0,4.2|
1,1,1.7|
1,2,3.2|
1,3,3.6|
1,4,9.4|
1,5,6.8|
1,6,8.1|
1,7,7.5|
2,0,8.6|
2,1,9.9|
2,2,2.4|
2,3,5.1|
2,4,5.3|
2,5,8|
2,6,2.3|
2,7,0.87|
3,0,6.6|
3,1,4.1|
3,2,7.1|
3,3,0.19|
3,4,6.3|
3,5,4.9|
3,6,0.061|
3,7,2.4|
4,0,2.5|
4,1,1.2|
4,2,9.1|
4,3,0.19|
4,4,6.7|
4,5,2|
4,6,2|
4,7,2.7|
5,0,0.77|
5,1,6.4|
5,2,8.3|
5,3,3.5|
5,4,9.4|
5,5,7.8|
5,6,3.7|
5,7,4.6|
6,0,5.6|
6,1,4.3|
6,2,9.7|
6,3,3.7|
6,4,0.97|
6,5,9.6|
6,6,2.7|
6,7,5.8|
7,0,8.7|
7,1,5.6|
7,2,2.8|
7,3,6.7|
7,4,4.9|
7,5,1|
7,6,5|
7,7,8.8|
];
constraint_x4_x3=[
0,0,9.4|
0,1,10|
0,2,3|
0,3,9.6|
0,4,7.4|
0,5,6.9|
0,6,4.1|
0,7,7.9|
1,0,7.5|
1,1,5.5|
1,2,0.012|
1,3,1.1|
1,4,4.6|
1,5,7.3|
1,6,9|
1,7,4.2|
2,0,5.9|
2,1,2.9|
2,2,3.1|
2,3,9.7|
2,4,1.7|
2,5,4.6|
2,6,4.3|
2,7,7.2|
3,0,8.4|
3,1,6.7|
3,2,8.6|
3,3,2.1|
3,4,2.8|
3,5,5.1|
3,6,0.28|
3,7,3.3|
4,0,2.5|
4,1,2.5|
4,2,0.68|
4,3,3.9|
4,4,5.7|
4,5,8.6|
4,6,6.7|
4,7,9.8|
5,0,4.2|
5,1,5.8|
5,2,9|
5,3,8.7|
5,4,3.9|
5,5,2.9|
5,6,3.3|
5,7,4.8|
6,0,8.9|
6,1,1.4|
6,2,7.5|
6,3,6.6|
6,4,9.5|
6,5,9.1|
6,6,0.57|
6,7,2.8|
7,0,1.6|
7,1,0.84|
7,2,5.7|
7,3,0.38|
7,4,7.9|
7,5,0.39|
7,6,0.058|
7,7,6.8|
];
constraint_x5_x1=[
0,0,8|
0,1,2.6|
0,2,8.4|
0,3,4.4|
0,4,3.1|
0,5,3.8|
0,6,5.6|
0,7,2|
1,0,8.9|
1,1,3.7|
1,2,3.7|
1,3,2|
1,4,4.5|
1,5,1.4|
1,6,1.2|
1,7,0.74|
2,0,0.049|
2,1,2.8|
2,2,9|
2,3,9|
2,4,6.4|
2,5,0.5|
2,6,2.5|
2,7,0.68|
3,0,6.4|
3,1,7.3|
3,2,9.3|
3,3,7.8|
3,4,4.8|
3,5,1.7|
3,6,5.6|
3,7,7.6|
4,0,0.38|
4,1,4.7|
4,2,8.8|
4,3,2.8|
4,4,0.79|
4,5,1.9|
4,6,4.1|
4,7,7.4|
5,0,6.4|
5,1,9|
5,2,9.8|
5,3,9.4|
5,4,2.5|
5,5,3|
5,6,8|
5,7,6.1|
6,0,8.8|
6,1,3.7|
6,2,1.3|
6,3,1.1|
6,4,6.8|
6,5,7.4|
6,6,7.9|
6,7,8.4|
7,0,9.8|
7,1,8.6|
7,2,3.3|
7,3,7.3|
7,4,3.9|
7,5,4.7|
7,6,6.5|
7,7,6.3|
];
constraint_x6_x2=[
0,0,7|
0,1,7.4|
0,2,0.52|
0,3,9.9|
0,4,9.7|
0,5,2.9|
0,6,4.3|
0,7,2.1|
1,0,4.4|
1,1,6.5|
1,2,1.6|
1,3,6.4|
1,4,1.8|
1,5,5.7|
1,6,1.9|
1,7,8.8|
2,0,5.4|
2,1,3.7|
2,2,5.3|
2,3,3.9|
2,4,6.9|
2,5,3.8|
2,6,0.24|
2,7,6.9|
3,0,0.92|
3,1,7.4|
3,2,8.9|
3,3,0.39|
3,4,9.4|
3,5,5.2|
3,6,9.4|
3,7,2.4|
4,0,2.6|
4,1,4.7|
4,2,5.7|
4,3,4.9|
4,4,2.9|
4,5,5|
4,6,7.6|
4,7,4.7|
5,0,1.2|
5,1,0.88|
5,2,6.6|
5,3,4.4|
5,4,1.4|
5,5,2.1|
5,6,4.8|
5,7,2.1|
6,0,3.7|
6,1,7.5|
6,2,8.8|
6,3,6.7|
6,4,5.9|
6,5,1.3|
6,6,5.2|
6,7,4.9|
7,0,9.4|
7,1,4|
7,2,3.9|
7,3,5.6|
7,4,0.22|
7,5,6.9|
7,6,6.5|
7,7,9.2|
];
constraint_x6_x5=[
0,0,9.2|
0,1,6.5|
0,2,1.3|
0,3,8.1|
0,4,9.2|
0,5,0.98|
0,6,4.8|
0,7,9|
1,0,5|
1,1,0.19|
1,2,3.1|
1,3,4.2|
1,4,5.3|
1,5,1.8|
1,6,5|
1,7,4.4|
2,0,4.1|
2,1,1.3|
2,2,6.7|
2,3,6.5|
2,4,4.8|
2,5,0.49|
2,6,3.1|
2,7,9.6|
3,0,5.3|
3,1,8|
3,2,1.3|
3,3,9.5|
3,4,2.1|
3,5,1.3|
3,6,3.4|
3,7,7|
4,0,5.5|
4,1,4.9|
4,2,7.9|
4,3,3.8|
4,4,9|
4,5,1.4|
4,6,9.7|
4,7,9.2|
5,0,3.2|
5,1,8|
5,2,1.2|
5,3,1.6|
5,4,6.3|
5,5,0.06|
5,6,9.9|
5,7,6.3|
6,0,0.73|
6,1,3.2|
6,2,8|
6,3,0.41|
6,4,4.2|
6,5,0.53|
6,6,4.4|
6,7,8.7|
7,0,2.6|
7,1,0.84|
7,2,0.63|
7,3,4.1|
7,4,1.2|
7,5,6.3|
7,6,4.9|
7,7,1.2|
];
constraint_x7_x3=[
0,0,7.9|
0,1,0.24|
0,2,8.7|
0,3,4.4|
0,4,3|
0,5,5.3|
0,6,3.7|
0,7,7.4|
1,0,6|
1,1,7.8|
1,2,7.1|
1,3,9.8|
1,4,8.4|
1,5,1.2|
1,6,7|
1,7,1.2|
2,0,9.9|
2,1,6.5|
2,2,6.5|
2,3,8.8|
2,4,4.1|
2,5,0.66|
2,6,2.5|
2,7,7.7|
3,0,9.2|
3,1,2.2|
3,2,2.4|
3,3,6.7|
3,4,4.3|
3,5,3|
3,6,6.5|
3,7,9.6|
4,0,9.4|
4,1,6.3|
4,2,5.2|
4,3,5.4|
4,4,8.1|
4,5,5.6|
4,6,7.8|
4,7,8|
5,0,8.6|
5,1,5.8|
5,2,7.2|
5,3,8.2|
5,4,4.1|
5,5,6.5|
5,6,8.8|
5,7,8.6|
6,0,2.1|
6,1,8.8|
6,2,4.1|
6,3,9.3|
6,4,5.5|
6,5,8|
6,6,5|
6,7,0.85|
7,0,0.77|
7,1,9.4|
7,2,6.7|
7,3,2.5|
7,4,0.07|
7,5,0.9|
7,6,5.2|
7,7,1.1|
];
constraint_x7_x6=[
0,0,6.1|
0,1,7.5|
0,2,7.1|
0,3,3.9|
0,4,9.6|
0,5,0.37|
0,6,5.6|
0,7,3.2|
1,0,9.9|
1,1,3.9|
1,2,3.4|
1,3,0.72|
1,4,3.6|
1,5,1.7|
1,6,0.22|
1,7,4|
2,0,2.3|
2,1,8.7|
2,2,2.3|
2,3,4.6|
2,4,8.1|
2,5,0.47|
2,6,5.8|
2,7,0.38|
3,0,1.8|
3,1,2.2|
3,2,4|
3,3,8|
3,4,1.1|
3,5,7.2|
3,6,5.3|
3,7,7.8|
4,0,9.3|
4,1,7|
4,2,5.9|
4,3,1.5|
4,4,0.2|
4,5,2.4|
4,6,0.28|
4,7,5.7|
5,0,2|
5,1,4.5|
5,2,8.5|
5,3,0.66|
5,4,3.5|
5,5,8.8|
5,6,9|
5,7,6.3|
6,0,5.8|
6,1,2.5|
6,2,1.1|
6,3,5.2|
6,4,5.2|
6,5,9.7|
6,6,0.9|
6,7,8|
7,0,9.2|
7,1,9.9|
7,2,2.7|
7,3,0.73|
7,4,6.7|
7,5,4.9|
7,6,2.5|
7,7,3.9|
];
constraint_x8_x4=[
0,0,9.4|
0,1,6.4|
0,2,9.9|
0,3,6.7|
0,4,0.15|
0,5,5.4|
0,6,6.7|
0,7,5|
1,0,2.6|
1,1,1.1|
1,2,9.5|
1,3,1.8|
1,4,1.8|
1,5,0.9|
1,6,9.4|
1,7,0.47|
2,0,4.5|
2,1,1.4|
2,2,3.8|
2,3,8.4|
2,4,8.3|
2,5,3.1|
2,6,5.6|
2,7,5.3|
3,0,7.8|
3,1,7.4|
3,2,4.4|
3,3,5.4|
3,4,4.3|
3,5,8|
3,6,9|
3,7,3.3|
4,0,9|
4,1,9.4|
4,2,9.3|
4,3,6.5|
4,4,7.4|
4,5,4.2|
4,6,1.3|
4,7,6.7|
5,0,7.9|
5,1,9.2|
5,2,7.9|
5,3,0.5|
5,4,1.6|
5,5,2.2|
5,6,6.6|
5,7,5.3|
6,0,4.2|
6,1,0.71|
6,2,8.7|
6,3,7|
6,4,4.1|
6,5,1.6|
6,6,5.5|
6,7,8|
7,0,4.7|
7,1,4.9|
7,2,6.3|
7,3,7|
7,4,2.6|
7,5,7.9|
7,6,3|
7,7,4.7|
];
constraint_x8_x7=[
0,0,8.3|
0,1,1|
0,2,7.9|
0,3,5.6|
0,4,3.9|
0,5,1.1|
0,6,9|
0,7,4.6|
1,0,7.6|
1,1,4|
1,2,4.1|
1,3,0.6|
1,4,9.1|
1,5,4.8|
1,6,9.2|
1,7,8.2|
2,0,6|
2,1,8.2|
2,2,3.1|
2,3,8.1|
2,4,3.7|
2,5,2|
2,6,6.6|
2,7,0.41|
3,0,0.89|
3,1,9.7|
3,2,9.9|
3,3,7.3|
3,4,2|
3,5,7|
3,6,7.5|
3,7,1.3|
4,0,9.7|
4,1,6.2|
4,2,6.1|
4,3,4.7|
4,4,1.4|
4,5,4.2|
4,6,9.1|
4,7,9|
5,0,1.6|
5,1,2.1|
5,2,5.1|
5,3,2.4|
5,4,2.1|
5,5,3.5|
5,6,6|
5,7,3|
6,0,9.5|
6,1,8.3|
6,2,7|
6,3,6.5|
6,4,0.9|
6,5,8.4|
6,6,4.2|
6,7,1.3|
7,0,2.9|
7,1,4.3|
7,2,0.63|
7,3,6.8|
7,4,4|
7,5,7.1|
7,6,0.62|
7,7,4.1|
];
constraint_x9_x5=[
0,0,3.1|
0,1,8.8|
0,2,5.2|
0,3,6.9|
0,4,8.7|
0,5,3.3|
0,6,2|
0,7,6.7|
1,0,9.5|
1,1,4.8|
1,2,4|
1,3,3.4|
1,4,1.8|
1,5,4.1|
1,6,8.8|
1,7,5.1|
2,0,2.9|
2,1,3.2|
2,2,4.4|
2,3,4.8|
2,4,5.4|
2,5,5.8|
2,6,8|
2,7,5.8|
3,0,6.9|
3,1,1.3|
3,2,1.7|
3,3,6.2|
3,4,1.9|
3,5,7.7|
3,6,9.6|
3,7,5.9|
4,0,7.8|
4,1,0.62|
4,2,9.8|
4,3,1.2|
4,4,2.7|
4,5,4.8|
4,6,5.3|
4,7,4.3|
5,0,0.28|
5,1,3.9|
5,2,5|
5,3,6.8|
5,4,4.7|
5,5,5|
5,6,1.9|
5,7,6.6|
6,0,1.7|
6,1,1.5|
6,2,6.7|
6,3,2|
6,4,4.8|
6,5,0.25|
6,6,2.4|
6,7,8.8|
7,0,3.9|
7,1,4.9|
7,2,0.065|
7,3,8.9|
7,4,7|
7,5,5.4|
7,6,1.9|
7,7,6|
];
constraint_x10_x6=[
0,0,5.6|
0,1,2.6|
0,2,4.6|
0,3,6.5|
0,4,4.8|
0,5,9.5|
0,6,9.5|
0,7,4.3|
1,0,2.7|
1,1,4.3|
1,2,7.2|
1,3,8.5|
1,4,0.65|
1,5,8.1|
1,6,9.1|
1,7,5.1|
2,0,8.4|
2,1,7.6|
2,2,6.3|
2,3,4.4|
2,4,0.49|
2,5,1|
2,6,9.9|
2,7,6.6|
3,0,3.2|
3,1,8.7|
3,2,0.44|
3,3,0.96|
3,4,1.5|
3,5,3.2|
3,6,8.7|
3,7,0.6|
4,0,6.5|
4,1,9.5|
4,2,6.5|
4,3,2.3|
4,4,7.7|
4,5,7.6|
4,6,7|
4,7,2.4|
5,0,1.9|
5,1,2.6|
5,2,3.8|
5,3,3.7|
5,4,6.5|
5,5,2|
5,6,5.9|
5,7,3.5|
6,0,4.3|
6,1,5.8|
6,2,8.6|
6,3,1.6|
6,4,4.3|
6,5,0.91|
6,6,6|
6,7,3.2|
7,0,9|
7,1,3.1|
7,2,6.6|
7,3,9.4|
7,4,0.078|
7,5,7.7|
7,6,4.7|
7,7,4.7|
];
constraint_x10_x9=[
0,0,4.5|
0,1,7.4|
0,2,5.3|
0,3,9.2|
0,4,6.9|
0,5,6.5|
0,6,2.7|
0,7,6.6|
1,0,7.7|
1,1,5.5|
1,2,0.57|
1,3,8.3|
1,4,8.7|
1,5,8.3|
1,6,5.8|
1,7,6.3|
2,0,7|
2,1,6.6|
2,2,4.1|
2,3,8.5|
2,4,2.4|
2,5,2.7|
2,6,4.8|
2,7,9|
3,0,4.7|
3,1,8.8|
3,2,1.8|
3,3,7.5|
3,4,1.7|
3,5,2.1|
3,6,3|
3,7,1.3|
4,0,4.8|
4,1,5.9|
4,2,5.4|
4,3,3.1|
4,4,7.2|
4,5,3|
4,6,5.7|
4,7,0.038|
5,0,9.4|
5,1,0.79|
5,2,5.9|
5,3,4.6|
5,4,6|
5,5,6.1|
5,6,3.4|
5,7,6.7|
6,0,5.5|
6,1,3.6|
6,2,2.4|
6,3,3.8|
6,4,8.6|
6,5,7|
6,6,5.5|
6,7,2.4|
7,0,8.9|
7,1,2.5|
7,2,7.6|
7,3,7.7|
7,4,0.79|
7,5,3|
7,6,5.2|
7,7,1.2|
];
constraint_x11_x7=[
0,0,7.8|
0,1,8.4|
0,2,5.3|
0,3,2.4|
0,4,3|
0,5,6.7|
0,6,5.1|
0,7,9.3|
1,0,2.4|
1,1,3.4|
1,2,9.6|
1,3,0.023|
1,4,4|
1,5,8.6|
1,6,6.6|
1,7,0.8|
2,0,4.6|
2,1,0.8|
2,2,3.4|
2,3,3.9|
2,4,2.9|
2,5,4.9|
2,6,1.3|
2,7,4.5|
3,0,9.4|
3,1,4.1|
3,2,7.1|
3,3,5.3|
3,4,1.1|
3,5,0.92|
3,6,2|
3,7,1.1|
4,0,6.6|
4,1,7.6|
4,2,4.7|
4,3,9.4|
4,4,3.3|
4,5,0.35|
4,6,1.5|
4,7,4|
5,0,1.1|
5,1,6.6|
5,2,1.7|
5,3,9|
5,4,2.9|
5,5,5.1|
5,6,5.9|
5,7,2|
6,0,0.17|
6,1,9.2|
6,2,8.4|
6,3,2.3|
6,4,9.9|
6,5,5.1|
6,6,0.86|
6,7,3.4|
7,0,7.4|
7,1,4.9|
7,2,5.2|
7,3,7.5|
7,4,2.8|
7,5,4.7|
7,6,8.8|
7,7,3.5|
];
constraint_x11_x10=[
0,0,5|
0,1,2|
0,2,7.2|
0,3,6.7|
0,4,6.8|
0,5,0.23|
0,6,9.9|
0,7,0.25|
1,0,2.9|
1,1,3|
1,2,5.8|
1,3,0.48|
1,4,5|
1,5,9.2|
1,6,5.1|
1,7,4.4|
2,0,9.1|
2,1,3.8|
2,2,9.6|
2,3,1.5|
2,4,1.1|
2,5,3.7|
2,6,1.1|
2,7,5.2|
3,0,6.6|
3,1,9.9|
3,2,2|
3,3,6.3|
3,4,2.6|
3,5,9.2|
3,6,8.5|
3,7,1|
4,0,9.8|
4,1,0.98|
4,2,8.9|
4,3,0.24|
4,4,9.7|
4,5,3|
4,6,6.7|
4,7,5.3|
5,0,1.4|
5,1,4.9|
5,2,1.7|
5,3,0.28|
5,4,3.8|
5,5,7|
5,6,6|
5,7,2|
6,0,7.2|
6,1,7|
6,2,3.5|
6,3,9.6|
6,4,0.25|
6,5,6|
6,6,4.5|
6,7,1.6|
7,0,4.7|
7,1,1.5|
7,2,7.7|
7,3,3.5|
7,4,0.5|
7,5,5.8|
7,6,10|
7,7,8.5|
];
constraint_x12_x8=[
0,0,5.5|
0,1,5.7|
0,2,4.9|
0,3,2|
0,4,8.2|
0,5,8.5|
0,6,8.6|
0,7,7.6|
1,0,6.5|
1,1,1.4|
1,2,4.1|
1,3,8.2|
1,4,1.8|
1,5,4.2|
1,6,6.9|
1,7,0.86|
2,0,5.5|
2,1,8.3|
2,2,5|
2,3,7.3|
2,4,3.9|
2,5,3.2|
2,6,9.2|
2,7,5.9|
3,0,0.31|
3,1,3.5|
3,2,2.4|
3,3,5.3|
3,4,7.7|
3,5,8.5|
3,6,2|
3,7,6.8|
4,0,3.1|
4,1,1.4|
4,2,2.4|
4,3,3.1|
4,4,2.1|
4,5,2.4|
4,6,4.8|
4,7,1.8|
5,0,3.1|
5,1,1.8|
5,2,0.76|
5,3,7.9|
5,4,0.8|
5,5,7.4|
5,6,9.7|
5,7,6.6|
6,0,7.1|
6,1,8.4|
6,2,5.8|
6,3,1.7|
6,4,9.6|
6,5,9.1|
6,6,3.4|
6,7,5.9|
7,0,0.32|
7,1,8|
7,2,0.92|
7,3,0.52|
7,4,3.7|
7,5,0.21|
7,6,2.1|
7,7,1.4|
];
constraint_x12_x11=[
0,0,9|
0,1,7|
0,2,9.1|
0,3,0.51|
0,4,2.7|
0,5,0.8|
0,6,7.2|
0,7,5|
1,0,2.4|
1,1,3.3|
1,2,8.3|
1,3,6.9|
1,4,1.8|
1,5,2.6|
1,6,0.33|
1,7,7.7|
2,0,2.3|
2,1,2.6|
2,2,6.9|
2,3,0.9|
2,4,7.7|
2,5,0.16|
2,6,1.3|
2,7,4.7|
3,0,0.57|
3,1,0.68|
3,2,9.8|
3,3,5.7|
3,4,2.1|
3,5,10|
3,6,5.8|
3,7,3.5|
4,0,3.5|
4,1,5.1|
4,2,5.9|
4,3,0.77|
4,4,0.58|
4,5,4.4|
4,6,5.8|
4,7,3.6|
5,0,5.5|
5,1,4.9|
5,2,0.75|
5,3,0.084|
5,4,7.9|
5,5,6.3|
5,6,2.8|
5,7,6.7|
6,0,7|
6,1,4|
6,2,9.6|
6,3,1.1|
6,4,2|
6,5,9.2|
6,6,9.6|
6,7,9|
7,0,8.9|
7,1,3.8|
7,2,4.5|
7,3,2.7|
7,4,2.5|
7,5,2.6|
7,6,9.9|
7,7,6.2|
];
constraint_x13_x9=[
0,0,8.5|
0,1,2.4|
0,2,0.87|
0,3,8.8|
0,4,2|
0,5,4.2|
0,6,7.4|
0,7,6|
1,0,0.38|
1,1,8.9|
1,2,7.6|
1,3,8.1|
1,4,2.7|
1,5,0.51|
1,6,1|
1,7,0.062|
2,0,6.1|
2,1,10|
2,2,4.7|
2,3,0.69|
2,4,8.9|
2,5,0.69|
2,6,3.6|
2,7,5.7|
3,0,2.8|
3,1,0.89|
3,2,0.015|
3,3,0.3|
3,4,8.5|
3,5,7.7|
3,6,9.4|
3,7,6.6|
4,0,2.8|
4,1,0.031|
4,2,0.21|
4,3,5.3|
4,4,7.4|
4,5,6.4|
4,6,6.4|
4,7,3.8|
5,0,5.2|
5,1,3.3|
5,2,7.4|
5,3,3.1|
5,4,5.8|
5,5,3.7|
5,6,7.5|
5,7,9.4|
6,0,9.9|
6,1,5.6|
6,2,2|
6,3,8.3|
6,4,7.7|
6,5,6.5|
6,6,6.5|
6,7,1.3|
7,0,4.1|
7,1,0.66|
7,2,8.8|
7,3,2.3|
7,4,2.4|
7,5,8.2|
7,6,9.2|
7,7,7|
];
constraint_x14_x10=[
0,0,2.2|
0,1,4.6|
0,2,2.4|
0,3,2.2|
0,4,3.7|
0,5,9.1|
0,6,7.4|
0,7,7.4|
1,0,6.5|
1,1,1.6|
1,2,0.9|
1,3,1.7|
1,4,9.6|
1,5,1.9|
1,6,1|
1,7,1.6|
2,0,7.6|
2,1,7|
2,2,3.4|
2,3,3.3|
2,4,5.8|
2,5,0.76|
2,6,2.3|
2,7,7|
3,0,8.5|
3,1,6.4|
3,2,0.48|
3,3,2.3|
3,4,5.3|
3,5,1.3|
3,6,5.7|
3,7,1.4|
4,0,7.7|
4,1,4.1|
4,2,1.7|
4,3,3|
4,4,3.4|
4,5,9.4|
4,6,6.2|
4,7,4.1|
5,0,8.7|
5,1,9.8|
5,2,4.7|
5,3,1.5|
5,4,1.7|
5,5,3.3|
5,6,6.5|
5,7,9.6|
6,0,0.65|
6,1,3.4|
6,2,9.5|
6,3,6.6|
6,4,8.6|
6,5,0.9|
6,6,9.3|
6,7,8.7|
7,0,4|
7,1,5.3|
7,2,6.1|
7,3,6.4|
7,4,5|
7,5,7.4|
7,6,1.6|
7,7,3.8|
];
constraint_x15_x11=[
0,0,1.2|
0,1,5.1|
0,2,1.4|
0,3,8.5|
0,4,8.8|
0,5,7.5|
0,6,3.5|
0,7,2.9|
1,0,1.4|
1,1,8.7|
1,2,9.2|
1,3,6.8|
1,4,3.4|
1,5,0.74|
1,6,9.1|
1,7,3.7|
2,0,7|
2,1,8|
2,2,4.5|
2,3,8.1|
2,4,8.2|
2,5,2.9|
2,6,0.86|
2,7,6.2|
3,0,9.8|
3,1,8.7|
3,2,7.8|
3,3,6.2|
3,4,7.8|
3,5,8.1|
3,6,4.2|
3,7,9|
4,0,1.2|
4,1,3|
4,2,3.4|
4,3,6.1|
4,4,7.8|
4,5,5.3|
4,6,5.3|
4,7,5.3|
5,0,6.7|
5,1,0.64|
5,2,9|
5,3,9.5|
5,4,2.9|
5,5,1.5|
5,6,7.8|
5,7,3.7|
6,0,9|
6,1,3.1|
6,2,7.7|
6,3,5.5|
6,4,4.8|
6,5,0.12|
6,6,1.1|
6,7,9.8|
7,0,0.35|
7,1,7.7|
7,2,7.6|
7,3,4.8|
7,4,5.3|
7,5,1.7|
7,6,0.15|
7,7,5.2|
];
constraint_x16_x12=[
0,0,9.6|
0,1,5|
0,2,9.4|
0,3,5.2|
0,4,2.4|
0,5,6.9|
0,6,7.3|
0,7,8.2|
1,0,7.3|
1,1,0.54|
1,2,2.3|
1,3,5.1|
1,4,7.8|
1,5,2.5|
1,6,0.37|
1,7,6.2|
2,0,5.4|
2,1,3.9|
2,2,8.9|
2,3,8.3|
2,4,8.7|
2,5,2.5|
2,6,7.2|
2,7,5.4|
3,0,2.9|
3,1,4.9|
3,2,1.4|
3,3,6.7|
3,4,1.8|
3,5,9.4|
3,6,3.8|
3,7,1.1|
4,0,4|
4,1,0.63|
4,2,2.1|
4,3,7.4|
4,4,2.3|
4,5,1.5|
4,6,7.4|
4,7,6.4|
5,0,7.3|
5,1,9.7|
5,2,2.5|
5,3,5.6|
5,4,5.5|
5,5,5.1|
5,6,2.7|
5,7,3.1|
6,0,3.8|
6,1,9.1|
6,2,8.7|
6,3,0.21|
6,4,4.7|
6,5,0.9|
6,6,7.4|
6,7,0.22|
7,0,7.1|
7,1,0.56|
7,2,9.1|
7,3,8.9|
7,4,9.7|
7,5,5.2|
7,6,4.7|
7,7,7.5|
];
constraint_x17_x13=[
0,0,3.6|
0,1,7|
0,2,5.7|
0,3,7.1|
0,4,4.4|
0,5,3.8|
0,6,7.5|
0,7,9.5|
1,0,3.8|
1,1,5.9|
1,2,9.4|
1,3,2.1|
1,4,8.6|
1,5,7.3|
1,6,9.3|
1,7,5|
2,0,4.8|
2,1,9|
2,2,8.2|
2,3,3|
2,4,3.5|
2,5,4.3|
2,6,5.9|
2,7,2.4|
3,0,3.9|
3,1,7.5|
3,2,3.1|
3,3,7.7|
3,4,4.3|
3,5,4.9|
3,6,7.3|
3,7,3|
4,0,3.1|
4,1,0.73|
4,2,0.75|
4,3,1.9|
4,4,1.1|
4,5,9.3|
4,6,2.8|
4,7,2.8|
5,0,6.5|
5,1,2|
5,2,8|
5,3,5.7|
5,4,4.7|
5,5,4.5|
5,6,3.9|
5,7,6.4|
6,0,6.6|
6,1,5.9|
6,2,4.5|
6,3,6.1|
6,4,6|
6,5,3.2|
6,6,7.7|
6,7,2.4|
7,0,0.75|
7,1,7.1|
7,2,1.5|
7,3,5|
7,4,6.7|
7,5,8|
7,6,7.3|
7,7,1|
];
constraint_x18_x14=[
0,0,0.76|
0,1,1.6|
0,2,8.7|
0,3,7.5|
0,4,5.3|
0,5,9.9|
0,6,6.4|
0,7,2|
1,0,9.5|
1,1,6|
1,2,8.6|
1,3,8.9|
1,4,2.6|
1,5,6.1|
1,6,0.37|
1,7,6.4|
2,0,9.5|
2,1,0.31|
2,2,1.7|
2,3,2.5|
2,4,9.5|
2,5,1|
2,6,7.6|
2,7,9.7|
3,0,2.2|
3,1,0.034|
3,2,6.2|
3,3,8.6|
3,4,4.1|
3,5,9.2|
3,6,9.4|
3,7,1.5|
4,0,0.6|
4,1,6.4|
4,2,9.6|
4,3,5.9|
4,4,2.2|
4,5,1.7|
4,6,4.2|
4,7,6.3|
5,0,3.1|
5,1,2|
5,2,7.5|
5,3,1.3|
5,4,5.2|
5,5,9.7|
5,6,7.2|
5,7,6|
6,0,2.7|
6,1,6.4|
6,2,7.6|
6,3,0.35|
6,4,0.28|
6,5,7.2|
6,6,2.5|
6,7,6.4|
7,0,2.9|
7,1,8.4|
7,2,7.6|
7,3,9.3|
7,4,5.3|
7,5,4.9|
7,6,4.9|
7,7,3.4|
];
constraint_x19_x15=[
0,0,6.9|
0,1,0.94|
0,2,8.8|
0,3,1.8|
0,4,2.7|
0,5,4.4|
0,6,9.7|
0,7,6|
1,0,0.27|
1,1,6.8|
1,2,1.4|
1,3,5.3|
1,4,8.4|
1,5,3.9|
1,6,4.9|
1,7,9.5|
2,0,3.2|
2,1,9.4|
2,2,4|
2,3,8.1|
2,4,9|
2,5,7.9|
2,6,0.042|
2,7,5.9|
3,0,9.4|
3,1,0.56|
3,2,7.6|
3,3,9.5|
3,4,3.7|
3,5,6.1|
3,6,3.5|
3,7,8|
4,0,0.38|
4,1,7|
4,2,8.2|
4,3,6.3|
4,4,4.4|
4,5,1.4|
4,6,4.1|
4,7,4.1|
5,0,4.2|
5,1,4.2|
5,2,3.1|
5,3,8.4|
5,4,2.5|
5,5,8.2|
5,6,7.9|
5,7,7|
6,0,8.6|
6,1,5.7|
6,2,4.5|
6,3,7.5|
6,4,3.6|
6,5,5.7|
6,6,8|
6,7,9.1|
7,0,3.6|
7,1,1.9|
7,2,9.4|
7,3,5.4|
7,4,5.5|
7,5,2.3|
7,6,5.7|
7,7,9.3|
];
constraint_x20_x16=[
0,0,0.5|
0,1,6.4|
0,2,2.3|
0,3,2.5|
0,4,0.028|
0,5,4.8|
0,6,3.9|
0,7,1.5|
1,0,0.85|
1,1,9.9|
1,2,3.2|
1,3,1|
1,4,1.6|
1,5,5.1|
1,6,4.1|
1,7,6|
2,0,7.6|
2,1,4.6|
2,2,5|
2,3,4.6|
2,4,1|
2,5,2.6|
2,6,0.43|
2,7,9.9|
3,0,5.3|
3,1,9.6|
3,2,6.6|
3,3,9.1|
3,4,4.1|
3,5,1.4|
3,6,4.2|
3,7,6.1|
4,0,0.95|
4,1,7.2|
4,2,3.2|
4,3,4.8|
4,4,3|
4,5,9.3|
4,6,2.7|
4,7,6.1|
5,0,7.6|
5,1,2.6|
5,2,3.2|
5,3,8.5|
5,4,4.3|
5,5,1.5|
5,6,3.5|
5,7,5.7|
6,0,4.9|
6,1,7.9|
6,2,9.6|
6,3,6.1|
6,4,5.5|
6,5,6.3|
6,6,8.8|
6,7,6.7|
7,0,4.5|
7,1,8.3|
7,2,6.4|
7,3,3.3|
7,4,6.9|
7,5,4.1|
7,6,1.8|
7,7,8.2|
];
constraint_x1_y1=[
0,0,2|
0,1,6.7|
0,2,8.9|
0,3,7|
0,4,3.3|
0,5,3.5|
0,6,2|
0,7,7.8|
1,0,8.3|
1,1,9|
1,2,4.6|
1,3,0.33|
1,4,9.7|
1,5,1.5|
1,6,7.9|
1,7,8.3|
2,0,4.4|
2,1,0.42|
2,2,2.7|
2,3,3.3|
2,4,0.21|
2,5,4.8|
2,6,9.8|
2,7,7.9|
3,0,6.4|
3,1,2.9|
3,2,6|
3,3,1.8|
3,4,4.7|
3,5,0.84|
3,6,7.2|
3,7,1.4|
4,0,7.2|
4,1,6|
4,2,6.2|
4,3,3.7|
4,4,2.4|
4,5,4|
4,6,3.5|
4,7,2.8|
5,0,7.9|
5,1,0.28|
5,2,2.4|
5,3,8.5|
5,4,4.3|
5,5,4.9|
5,6,7|
5,7,3.4|
6,0,1.4|
6,1,8.2|
6,2,5.6|
6,3,6.1|
6,4,8.3|
6,5,4.9|
6,6,6.5|
6,7,6.9|
7,0,4.7|
7,1,0.95|
7,2,3|
7,3,9.3|
7,4,6.2|
7,5,4.9|
7,6,4.4|
7,7,7.7|
];
constraint_x2_y2=[
0,0,5.1|
0,1,9.5|
0,2,7|
0,3,6.6|
0,4,5.7|
0,5,0.98|
0,6,1|
0,7,9|
1,0,6.5|
1,1,5.1|
1,2,5.2|
1,3,2.1|
1,4,4.3|
1,5,8.6|
1,6,1.1|
1,7,9.7|
2,0,7.9|
2,1,3.1|
2,2,2.1|
2,3,5|
2,4,4.8|
2,5,9.6|
2,6,4.3|
2,7,3.2|
3,0,8|
3,1,9.9|
3,2,2.8|
3,3,4.6|
3,4,4.9|
3,5,0.72|
3,6,2.3|
3,7,9.5|
4,0,0.48|
4,1,3.3|
4,2,6|
4,3,6.1|
4,4,6.8|
4,5,6.5|
4,6,9.9|
4,7,4.9|
5,0,3.2|
5,1,3.6|
5,2,1.1|
5,3,6|
5,4,0.39|
5,5,6.5|
5,6,1.5|
5,7,4|
6,0,8.3|
6,1,3.6|
6,2,6|
6,3,8|
6,4,7.6|
6,5,4.2|
6,6,4.4|
6,7,2.1|
7,0,0.65|
7,1,1.4|
7,2,4.6|
7,3,4.4|
7,4,0.59|
7,5,1.4|
7,6,6.8|
7,7,6.8|
];
constraint_x3_y3=[
0,0,6.1|
0,1,8.4|
0,2,1.7|
0,3,0.24|
0,4,4.8|
0,5,9.6|
0,6,7.7|
0,7,3.7|
1,0,9.3|
1,1,4.2|
1,2,7.3|
1,3,3.6|
1,4,6.3|
1,5,3.9|
1,6,0.57|
1,7,8.8|
2,0,10|
2,1,0.45|
2,2,1.5|
2,3,7.9|
2,4,3.8|
2,5,4|
2,6,4.4|
2,7,1.3|
3,0,6|
3,1,7.3|
3,2,2|
3,3,9.3|
3,4,4.8|
3,5,1.9|
3,6,7.7|
3,7,7.5|
4,0,5.6|
4,1,7.9|
4,2,0.028|
4,3,8.9|
4,4,4.3|
4,5,4.9|
4,6,0.018|
4,7,4.5|
5,0,5.1|
5,1,1.5|
5,2,8.5|
5,3,4.5|
5,4,8.7|
5,5,7.2|
5,6,5.5|
5,7,7.5|
6,0,0.81|
6,1,2.5|
6,2,6.4|
6,3,0.88|
6,4,4.8|
6,5,2.1|
6,6,3.1|
6,7,7.1|
7,0,6.7|
7,1,8.6|
7,2,6.2|
7,3,3.5|
7,4,1.6|
7,5,1.6|
7,6,5.4|
7,7,5.5|
];
constraint_x4_y4=[
0,0,2.9|
0,1,5.5|
0,2,9.1|
0,3,8.8|
0,4,9.9|
0,5,9.9|
0,6,8.3|
0,7,2.3|
1,0,4.7|
1,1,1|
1,2,0.89|
1,3,4.5|
1,4,7.1|
1,5,6|
1,6,4.3|
1,7,5.1|
2,0,9.4|
2,1,3.7|
2,2,2.6|
2,3,8.1|
2,4,4.2|
2,5,5.5|
2,6,0.96|
2,7,7.2|
3,0,6.5|
3,1,1.3|
3,2,8.8|
3,3,4.2|
3,4,2.1|
3,5,6.2|
3,6,8.3|
3,7,8.5|
4,0,7.4|
4,1,2.6|
4,2,5.8|
4,3,2.2|
4,4,3.2|
4,5,0.14|
4,6,5.9|
4,7,4.8|
5,0,6.1|
5,1,9.6|
5,2,8.7|
5,3,5.9|
5,4,9.7|
5,5,4.4|
5,6,2.5|
5,7,1.6|
6,0,0.49|
6,1,8|
6,2,0.49|
6,3,7.4|
6,4,0.67|
6,5,0.81|
6,6,2.5|
6,7,5.6|
7,0,4.7|
7,1,6.1|
7,2,4.6|
7,3,6.6|
7,4,2.7|
7,5,3.4|
7,6,3.1|
7,7,0.37|
];
constraint_x5_y5=[
0,0,3.9|
0,1,1.2|
0,2,8.8|
0,3,1.6|
0,4,3.4|
0,5,6.5|
0,6,6.3|
0,7,3.8|
1,0,7.5|
1,1,4.4|
1,2,9.9|
1,3,5.4|
1,4,8.4|
1,5,9.3|
1,6,1.4|
1,7,8.2|
2,0,4.1|
2,1,8.8|
2,2,7.3|
2,3,4.3|
2,4,7.3|
2,5,6.3|
2,6,2.6|
2,7,6.3|
3,0,6.4|
3,1,2.2|
3,2,9|
3,3,2.4|
3,4,6.3|
3,5,5.9|
3,6,0.3|
3,7,2.3|
4,0,9.4|
4,1,1.7|
4,2,0.65|
4,3,8.3|
4,4,7.7|
4,5,1.1|
4,6,3.9|
4,7,6.5|
5,0,9.4|
5,1,8.5|
5,2,10|
5,3,2.1|
5,4,4.6|
5,5,1.2|
5,6,9|
5,7,6.8|
6,0,1.4|
6,1,5.9|
6,2,8.1|
6,3,4.4|
6,4,8.3|
6,5,6.9|
6,6,9.7|
6,7,8.9|
7,0,6.9|
7,1,5.7|
7,2,8.8|
7,3,3.1|
7,4,5.7|
7,5,6.5|
7,6,1.4|
7,7,4.5|
];
constraint_x6_y6=[
0,0,9.4|
0,1,7.9|
0,2,2.5|
0,3,6.9|
0,4,2.6|
0,5,9.9|
0,6,7|
0,7,5.3|
1,0,6.9|
1,1,6.3|
1,2,4.3|
1,3,1.8|
1,4,9.6|
1,5,5|
1,6,5.5|
1,7,2.8|
2,0,3.7|
2,1,4.2|
2,2,3.9|
2,3,1.8|
2,4,2.2|
2,5,6.3|
2,6,9.6|
2,7,1.1|
3,0,2|
3,1,4.6|
3,2,0.45|
3,3,3.5|
3,4,7.2|
3,5,6.4|
3,6,4.8|
3,7,3.5|
4,0,3.7|
4,1,9.1|
4,2,2.2|
4,3,0.1|
4,4,7.3|
4,5,5.9|
4,6,2|
4,7,3.8|
5,0,1.3|
5,1,2.2|
5,2,6|
5,3,7.1|
5,4,4.5|
5,5,3.5|
5,6,5.9|
5,7,6.1|
6,0,5|
6,1,3.7|
6,2,9.1|
6,3,8.5|
6,4,5.2|
6,5,7.7|
6,6,1.4|
6,7,9.9|
7,0,0.49|
7,1,7|
7,2,0.033|
7,3,3.7|
7,4,6.1|
7,5,4.7|
7,6,6.2|
7,7,3|
];
constraint_x7_y7=[
0,0,8.6|
0,1,4.7|
0,2,8.6|
0,3,2.3|
0,4,0.37|
0,5,9.2|
0,6,5.7|
0,7,1.4|
1,0,0.7|
1,1,3.6|
1,2,7.3|
1,3,8.2|
1,4,1.3|
1,5,6.9|
1,6,5.3|
1,7,1.3|
2,0,3.4|
2,1,5.7|
2,2,3.7|
2,3,3.7|
2,4,9.7|
2,5,7.8|
2,6,1.5|
2,7,10|
3,0,3.1|
3,1,7.7|
3,2,9.7|
3,3,4.9|
3,4,8.9|
3,5,8.7|
3,6,9.5|
3,7,4.8|
4,0,5.8|
4,1,4|
4,2,6.9|
4,3,6.4|
4,4,5.9|
4,5,8.6|
4,6,3.1|
4,7,2.2|
5,0,2.2|
5,1,8.1|
5,2,9|
5,3,5.8|
5,4,8.3|
5,5,8.3|
5,6,3.4|
5,7,0.7|
6,0,0.54|
6,1,6.9|
6,2,5.1|
6,3,7.3|
6,4,6|
6,5,4.7|
6,6,9.7|
6,7,8.1|
7,0,1.9|
7,1,4.8|
7,2,1.9|
7,3,3.5|
7,4,4|
7,5,3|
7,6,9.1|
7,7,7.2|
];
constraint_x8_y8=[
0,0,8.9|
0,1,0.16|
0,2,9.2|
0,3,8|
0,4,2.8|
0,5,6.5|
0,6,9.7|
0,7,9.3|
1,0,6.8|
1,1,3.6|
1,2,8.5|
1,3,2.1|
1,4,8.4|
1,5,8|
1,6,2.3|
1,7,7.1|
2,0,4.9|
2,1,4.2|
2,2,4.7|
2,3,6.5|
2,4,0.099|
2,5,2.9|
2,6,6|
2,7,3.8|
3,0,7.8|
3,1,7.1|
3,2,1.1|
3,3,0.15|
3,4,4.5|
3,5,0.69|
3,6,3.3|
3,7,1.3|
4,0,8.2|
4,1,1.3|
4,2,5.6|
4,3,2.5|
4,4,3.2|
4,5,7.2|
4,6,8.8|
4,7,1.9|
5,0,9.7|
5,1,6.7|
5,2,3.4|
5,3,7.2|
5,4,3.4|
5,5,6.2|
5,6,2.8|
5,7,2.3|
6,0,6.5|
6,1,8.1|
6,2,9|
6,3,6.4|
6,4,9|
6,5,5.8|
6,6,1.9|
6,7,7.2|
7,0,6.1|
7,1,9.2|
7,2,4.1|
7,3,0.88|
7,4,6.1|
7,5,9.6|
7,6,4.5|
7,7,8.2|
];
constraint_x9_y9=[
0,0,3.2|
0,1,8|
0,2,6.6|
0,3,6.8|
0,4,9.6|
0,5,1.6|
0,6,7.5|
0,7,3.1|
1,0,2.2|
1,1,3.2|
1,2,7.3|
1,3,3.4|
1,4,5.4|
1,5,1.4|
1,6,9|
1,7,1.6|
2,0,1.7|
2,1,4.8|
2,2,8.5|
2,3,9|
2,4,2.2|
2,5,8.1|
2,6,4.2|
2,7,0.55|
3,0,3.6|
3,1,0.32|
3,2,3.4|
3,3,8.6|
3,4,3.1|
3,5,1.8|
3,6,5|
3,7,9.1|
4,0,2.6|
4,1,0.48|
4,2,5.8|
4,3,4|
4,4,3.2|
4,5,6.6|
4,6,1.8|
4,7,8.3|
5,0,7.6|
5,1,7.6|
5,2,1.7|
5,3,7.6|
5,4,3.3|
5,5,9.5|
5,6,7.7|
5,7,7.6|
6,0,9.2|
6,1,3.5|
6,2,4.1|
6,3,1.3|
6,4,0.2|
6,5,6|
6,6,4|
6,7,1.6|
7,0,6.8|
7,1,0.81|
7,2,2.2|
7,3,5|
7,4,5.4|
7,5,2.2|
7,6,7.7|
7,7,5.1|
];
initial_distribution_y1=[0.003,0.18,0.12,0.14,0.17,0.11,0.14,0.13];
initial_distribution_y2=[0.2,0.034,0.15,0.14,0.12,0.13,0.2,0.015];
initial_distribution_y3=[0.15,0.11,0.21,0.17,0.015,0.21,0.14,0.0043];
initial_distribution_y4=[0.036,0.16,0.11,0.095,0.17,0.16,0.19,0.078];
initial_distribution_y5=[0.023,0.021,0.17,0.098,0.17,0.21,0.19,0.11];
initial_distribution_y6=[0.2,0.26,0.036,0.093,0.079,0.019,0.04,0.27];
initial_distribution_y7=[0.097,0.021,0.28,0.34,0.068,0.094,0.018,0.078];
initial_distribution_y8=[0.17,0.065,0.057,0.2,0.022,0.22,0.028,0.24];
initial_distribution_y9=[0.086,0.15,0.19,0.17,0.16,0.057,0.078,0.11];
transition_y1=[
0.14,0.27,0.051,0.021,0.077,0.083,0.21,0.15|
0.065,0.16,0.21,0.19,0.08,0.093,0.18,0.034|
0.12,0.13,0.17,0.039,0.15,0.17,0.1,0.13|
0.051,0.092,0.12,0.18,0.13,0.1,0.15,0.16|
0.15,0.2,0.11,0.2,0.13,0.073,0.06,0.088|
0.24,0.21,0.028,0.15,0.0039,0.26,0.047,0.053|
0.15,0.17,0.081,0.12,0.031,0.15,0.14,0.15|
0.11,0.21,0.13,0.054,0.14,0.12,0.22,0.021|
];
transition_y2=[
0.22,0.032,0.098,0.11,0.13,0.18,0.028,0.21|
0.086,0.13,0.14,0.12,0.1,0.14,0.17,0.12|
0.011,0.19,0.27,0.084,0.0055,0.12,0.25,0.061|
0.24,0.16,0.055,0.11,0.11,0.15,0.09,0.095|
0.12,0.02,0.23,0.066,0.086,0.18,0.14,0.16|
0.058,0.11,0.12,0.17,0.15,0.19,0.19,0.016|
0.062,0.27,0.19,0.0058,0.15,0.0068,0.14,0.18|
0.09,0.16,0.052,0.16,0.22,0.025,0.17,0.13|
];
transition_y3=[
0.19,0.062,0.029,0.2,0.14,0.08,0.19,0.11|
0.073,0.07,0.16,0.079,0.014,0.29,0.14,0.17|
0.031,0.11,0.04,0.17,0.009,0.25,0.2,0.18|
0.17,0.14,0.071,0.2,0.08,0.17,0.06,0.1|
0.25,0.31,0.22,0.024,0.08,0.062,0.0097,0.048|
0.058,0.074,0.14,0.013,0.16,0.11,0.25,0.19|
0.23,0.011,0.1,0.19,0.11,0.0088,0.17,0.18|
0.044,0.087,0.22,0.24,0.13,0.063,0.034,0.17|
];
transition_y4=[
0.22,0.059,0.14,0.16,0.11,0.18,0.077,0.053|
0.015,0.12,0.19,0.11,0.16,0.19,0.18,0.027|
0.034,0.19,0.15,0.25,0.074,0.14,0.091,0.084|
0.11,0.071,0.13,0.051,0.14,0.17,0.12,0.21|
0.043,0.15,0.18,0.09,0.11,0.19,0.035,0.21|
0.094,0.14,0.13,0.13,0.14,0.12,0.093,0.14|
0.042,0.28,0.079,0.046,0.13,0.1,0.11,0.21|
0.19,0.15,0.14,0.064,0.13,0.11,0.0038,0.21|
];
transition_y5=[
0.16,0.25,0.17,0.11,0.16,0.13,0.0087,0.0065|
0.17,0.16,0.093,0.19,0.13,0.013,0.082,0.16|
0.21,0.26,0.14,0.081,0.055,0.11,0.12,0.015|
0.16,0.032,0.12,0.18,0.06,0.16,0.22,0.055|
0.21,0.14,0.14,0.088,0.0049,0.14,0.25,0.019|
0.16,0.16,0.17,0.15,0.18,0.11,0.053,0.011|
0.14,0.093,0.06,0.089,0.042,0.27,0.1,0.21|
0.063,0.055,0.052,0.22,0.15,0.18,0.086,0.2|
];
transition_y6=[
0.046,0.15,0.04,0.11,0.21,0.19,0.22,0.032|
0.11,0.11,0.16,0.072,0.078,0.17,0.16,0.12|
0.12,0.19,0.014,0.047,0.19,0.14,0.14,0.17|
0.028,0.037,0.15,0.18,0.17,0.22,0.19,0.021|
0.0094,0.089,0.054,0.22,0.14,0.21,0.12,0.15|
0.099,0.066,0.26,0.13,0.013,0.15,0.089,0.19|
0.2,0.18,0.11,0.15,0.059,0.23,0.026,0.04|
0.18,0.0027,0.18,0.19,0.16,0.011,0.11,0.16|
];
transition_y7=[
0.15,0.066,0.14,0.13,0.13,0.12,0.057,0.21|
0.064,0.21,0.01,0.2,0.27,0.084,0.0069,0.15|
0.13,0.062,0.097,0.19,0.053,0.3,0.054,0.12|
0.033,0.08,0.3,0.012,0.086,0.32,0.08,0.091|
0.22,0.067,0.083,0.23,0.068,0.11,0.055,0.17|
0.23,0.14,0.23,0.04,0.06,0.0078,0.031,0.27|
0.11,0.017,0.13,0.27,0.031,0.15,0.13,0.17|
0.2,0.16,0.11,0.098,0.078,0.1,0.21,0.046|
];
transition_y8=[
0.049,0.17,0.12,0.17,0.18,0.16,0.11,0.041|
0.16,0.037,0.19,0.11,0.0073,0.24,0.075,0.18|
0.11,0.018,0.14,0.17,0.016,0.2,0.14,0.2|
0.03,0.046,0.19,0.17,0.1,0.19,0.065,0.2|
0.096,0.2,0.2,0.018,0.2,0.21,0.0069,0.055|
0.02,0.18,0.017,0.17,0.15,0.077,0.2,0.18|
0.024,0.073,0.15,0.021,0.28,0.037,0.21,0.21|
0.026,0.17,0.1,0.25,0.19,0.012,0.074,0.18|
];
transition_y9=[
0.21,0.018,0.086,0.16,0.071,0.19,0.11,0.15|
0.071,0.011,0.21,0.046,0.22,0.062,0.18,0.2|
0.14,0.13,0.15,0.071,0.16,0.15,0.17,0.035|
0.11,0.056,0.26,0.083,0.16,0.062,0.068,0.21|
0.15,0.0099,0.16,0.031,0.19,0.22,0.076,0.16|
0.057,0.2,0.088,0.18,0.12,0.24,0.038,0.08|
0.13,0.068,0.29,0.11,0.29,0.039,0.032,0.038|
0.056,0.17,0.25,0.16,0.014,0.071,0.035,0.25|
];
